\ Model Routes
\ LP format - for model browsing. Use MPS format to capture full model detail.
Maximize
  1533.228206194839 R{0,0} + 2591.679024458567 R{0,1}
   + 2591.679024458567 R{0,2} - 249.2301939667805 R{0,3}
   - 17.2186063228686 R{0,4} + 1085.481438609255 R{0,5}
   + 1085.481438609255 R{0,6} + 898.3629010966506 R{0,7}
   + 50.21028675269167 R{0,8} + 1107.869356369669 R{0,9}
   + 128.545475120328 R{0,10} + 2827.792663405789 R{0,11}
   + 1996.310599001414 R{0,12} + 1351.611019949776 R{0,13}
   + 1730.992681875254 R{0,14} + 1793.830411320892 R{0,15}
   + 2345.362589989498 R{0,16} + 1680.410332476089 R{0,17}
   + 1283.186045410292 R{0,18} + 1231.50962666468 R{0,19}
   + 1445.824501815375 R{0,20} + 2071.519986804486 R{0,21}
   + 1611.376882487601 R{0,22} - 256.140831891889 R{1,0}
   + 368.0124135284808 R{1,1} + 1065.704601311744 R{1,2}
   + 364.5327871002562 R{1,3} + 544.0669767572493 R{1,4}
   + 795.582312637811 R{1,5} + 19.91294377155961 R{1,6}
   + 1073.945533121565 R{1,7} + 731.635971577569 R{1,8}
   + 598.1575028390232 R{1,9} + 570.9028032113401 R{1,10}
   + 1073.945533121565 R{1,11} + 1003.467763264132 R{1,12}
   + 751.2150540913008 R{1,13} - 278.4443928850388 R{2,0}
   - 59.13410337035452 R{2,1} + 602.7748664658451 R{2,2}
   + 1100.505917706273 R{2,3} + 916.1789585751681 R{2,4}
   + 675.0053638221349 R{2,5} + 746.4192457897301 R{2,6}
   + 1127.126554447374 R{2,7} + 529.8295982948299 R{2,8}
   + 450.6794601427466 R{2,9} + 739.9080506286663 R{2,10}
   + 581.901474299494 R{2,11} + 254.2699887389686 R{2,12}
   + 124.111107645844 R{2,13} + 118.8928286215649 R{2,14}
   - 260.2482995389823 R{3,0} + 468.7985517431167 R{3,1}
   + 997.977727065218 R{3,2} + 979.9312936914234 R{3,3}
   + 218.838896062172 R{3,4} + 922.188199500376 R{3,5}
   + 481.9589837584638 R{3,6} + 1319.595143965071 R{3,7}
   + 453.9175082624989 R{3,8} + 562.6027105715502 R{3,9}
   + 552.8163911541704 R{3,10} + 395.0042822877035 R{3,11}
   + 898.2907316949941 R{3,12} + 875.5683943631293 R{3,13}
   - 242.5208875955131 R{4,0} + 1066.379443184683 R{4,1}
   + 1576.196574514046 R{4,2} + 1114.867455709484 R{4,3}
   + 1090.561604570247 R{4,4} + 1243.182504172769 R{4,5}
   + 1090.561604570247 R{4,6} + 1209.937403973511 R{4,7}
   + 1614.759663885629 R{4,8} + 703.6855986328605 R{4,9}
   + 1156.967533588411 R{4,10} + 1068.699526978309 R{4,11}
   + 824.8762051966892 R{4,12} + 894.7504259495699 R{4,13}
   + 781.9026892643315 R{4,14} + 879.3547923012579 R{4,15}
   + 819.9087414125604 R{4,16} + 1600.37873589961 R{4,17}
   + 950.9107722256936 R{4,18} + 774.8743827106699 R{4,19}
   + 1296.205022341536 R{4,20} + 1306.610063658354 R{4,21}
   + 1031.046269352452 R{4,22} + 1018.790357585425 R{4,23}
   + 1077.713922883579 R{4,24} - 231.9775664337766 R{5,0}
   + 326.98460213128 R{5,1} + 1480.650475450034 R{5,2}
   + 1480.650475450034 R{5,3} + 999.7030566783217 R{5,4}
   + 859.1206764994722 R{5,5} + 859.1206764994722 R{5,6}
   + 1686.953674195515 R{5,7} + 395.3408803207716 R{5,8}
   + 526.2411767339561 R{5,9} + 279.08767350511 R{5,10}
   + 1161.937160897007 R{5,11} + 650.8810299351385 R{5,12}
   + 807.2006930098153 R{5,13} + 1050.676630360206 R{5,14}
   + 1443.63525784594 R{5,15} + 1228.940307820552 R{5,16}
   + 281.6502712537329 R{5,17} - 231.1436095783099 R{6,0}
   + 1381.891878324568 R{6,1} + 2138.911397941406 R{6,2}
   + 2560.066428814385 R{6,3} + 2341.565505275482 R{6,4}
   + 2031.91801432161 R{6,5} + 2747.51298587447 R{6,6}
   + 2748.455490375772 R{6,7} + 958.7153134073421 R{6,8}
   + 2577.860951708607 R{6,9} + 1826.169284956215 R{6,10}
   + 1863.531721922482 R{6,11} + 1767.322883083253 R{6,12}
   + 2916.207610345444 R{6,13} + 2031.283841892154 R{6,14}
   + 1763.118755481023 R{6,15} + 2377.061261817298 R{6,16}
   + 1682.093188011776 R{6,17} + 1631.025247248298 R{6,18}
   + 1451.405094536037 R{6,19} + 2148.72688905119 R{6,20}
   + 2079.332371678623 R{6,21} + 2387.133829290182 R{6,22}
   + 1656.887905564333 R{6,23} + 1207.586424608962 R{6,24}
   + 1750.284516033741 R{6,25}
Subject To
 R00: R{0,0} <= 1
 R01: R{0,1} <= 1
 R02: R{0,2} <= 1
 R03: R{0,3} <= 1
 R04: R{0,4} <= 1
 R05: R{0,5} <= 1
 R06: R{0,6} <= 1
 R07: R{0,7} <= 1
 R08: R{0,8} <= 1
 R09: R{0,9} <= 1
 R010: R{0,10} <= 1
 R011: R{0,11} <= 1
 R012: R{0,12} <= 1
 R013: R{0,13} <= 1
 R014: R{0,14} <= 1
 R015: R{0,15} <= 1
 R016: R{0,16} <= 1
 R017: R{0,17} <= 1
 R018: R{0,18} <= 1
 R019: R{0,19} <= 1
 R020: R{0,20} <= 1
 R021: R{0,21} <= 1
 R022: R{0,22} <= 1
 R023: R{1,0} <= 1
 R024: R{1,1} <= 1
 R025: R{1,2} <= 1
 R026: R{1,3} <= 1
 R027: R{1,4} <= 1
 R028: R{1,5} <= 1
 R029: R{1,6} <= 1
 R030: R{1,7} <= 1
 R031: R{1,8} <= 1
 R032: R{1,9} <= 1
 R033: R{1,10} <= 1
 R034: R{1,11} <= 1
 R035: R{1,12} <= 1
 R036: R{1,13} <= 1
 R037: R{2,0} <= 1
 R038: R{2,1} <= 1
 R039: R{2,2} <= 1
 R040: R{2,3} <= 1
 R041: R{2,4} <= 1
 R042: R{2,5} <= 1
 R043: R{2,6} <= 1
 R044: R{2,7} <= 1
 R045: R{2,8} <= 1
 R046: R{2,9} <= 1
 R047: R{2,10} <= 1
 R048: R{2,11} <= 1
 R049: R{2,12} <= 1
 R050: R{2,13} <= 1
 R051: R{2,14} <= 1
 R052: R{3,0} <= 1
 R053: R{3,1} <= 1
 R054: R{3,2} <= 1
 R055: R{3,3} <= 1
 R056: R{3,4} <= 1
 R057: R{3,5} <= 1
 R058: R{3,6} <= 1
 R059: R{3,7} <= 1
 R060: R{3,8} <= 1
 R061: R{3,9} <= 1
 R062: R{3,10} <= 1
 R063: R{3,11} <= 1
 R064: R{3,12} <= 1
 R065: R{3,13} <= 1
 R066: R{4,0} <= 1
 R067: R{4,1} <= 1
 R068: R{4,2} <= 1
 R069: R{4,3} <= 1
 R070: R{4,4} <= 1
 R071: R{4,5} <= 1
 R072: R{4,6} <= 1
 R073: R{4,7} <= 1
 R074: R{4,8} <= 1
 R075: R{4,9} <= 1
 R076: R{4,10} <= 1
 R077: R{4,11} <= 1
 R078: R{4,12} <= 1
 R079: R{4,13} <= 1
 R080: R{4,14} <= 1
 R081: R{4,15} <= 1
 R082: R{4,16} <= 1
 R083: R{4,17} <= 1
 R084: R{4,18} <= 1
 R085: R{4,19} <= 1
 R086: R{4,20} <= 1
 R087: R{4,21} <= 1
 R088: R{4,22} <= 1
 R089: R{4,23} <= 1
 R090: R{4,24} <= 1
 R091: R{5,0} <= 1
 R092: R{5,1} <= 1
 R093: R{5,2} <= 1
 R094: R{5,3} <= 1
 R095: R{5,4} <= 1
 R096: R{5,5} <= 1
 R097: R{5,6} <= 1
 R098: R{5,7} <= 1
 R099: R{5,8} <= 1
 R0100: R{5,9} <= 1
 R0101: R{5,10} <= 1
 R0102: R{5,11} <= 1
 R0103: R{5,12} <= 1
 R0104: R{5,13} <= 1
 R0105: R{5,14} <= 1
 R0106: R{5,15} <= 1
 R0107: R{5,16} <= 1
 R0108: R{5,17} <= 1
 R0109: R{6,0} <= 1
 R0110: R{6,1} <= 1
 R0111: R{6,2} <= 1
 R0112: R{6,3} <= 1
 R0113: R{6,4} <= 1
 R0114: R{6,5} <= 1
 R0115: R{6,6} <= 1
 R0116: R{6,7} <= 1
 R0117: R{6,8} <= 1
 R0118: R{6,9} <= 1
 R0119: R{6,10} <= 1
 R0120: R{6,11} <= 1
 R0121: R{6,12} <= 1
 R0122: R{6,13} <= 1
 R0123: R{6,14} <= 1
 R0124: R{6,15} <= 1
 R0125: R{6,16} <= 1
 R0126: R{6,17} <= 1
 R0127: R{6,18} <= 1
 R0128: R{6,19} <= 1
 R0129: R{6,20} <= 1
 R0130: R{6,21} <= 1
 R0131: R{6,22} <= 1
 R0132: R{6,23} <= 1
 R0133: R{6,24} <= 1
 R0134: R{6,25} <= 1
 R1_0: R{0,0} + R{0,1} + R{0,2} + R{0,3} + R{0,4} + R{0,5} + R{0,6}
   + R{0,7} + R{0,8} + R{0,9} + R{0,10} + R{0,11} + R{0,12} + R{0,13}
   + R{0,14} + R{0,15} + R{0,16} + R{0,17} + R{0,18} + R{0,19} + R{0,20}
   + R{0,21} + R{0,22} <= 1
 R1_1: R{1,0} + R{1,1} + R{1,2} + R{1,3} + R{1,4} + R{1,5} + R{1,6}
   + R{1,7} + R{1,8} + R{1,9} + R{1,10} + R{1,11} + R{1,12} + R{1,13} <= 1
 R1_2: R{2,0} + R{2,1} + R{2,2} + R{2,3} + R{2,4} + R{2,5} + R{2,6}
   + R{2,7} + R{2,8} + R{2,9} + R{2,10} + R{2,11} + R{2,12} + R{2,13}
   + R{2,14} <= 1
 R1_3: R{3,0} + R{3,1} + R{3,2} + R{3,3} + R{3,4} + R{3,5} + R{3,6}
   + R{3,7} + R{3,8} + R{3,9} + R{3,10} + R{3,11} + R{3,12} + R{3,13} <= 1
 R1_4: R{4,0} + R{4,1} + R{4,2} + R{4,3} + R{4,4} + R{4,5} + R{4,6}
   + R{4,7} + R{4,8} + R{4,9} + R{4,10} + R{4,11} + R{4,12} + R{4,13}
   + R{4,14} + R{4,15} + R{4,16} + R{4,17} + R{4,18} + R{4,19} + R{4,20}
   + R{4,21} + R{4,22} + R{4,23} + R{4,24} <= 1
 R1_5: R{5,0} + R{5,1} + R{5,2} + R{5,3} + R{5,4} + R{5,5} + R{5,6}
   + R{5,7} + R{5,8} + R{5,9} + R{5,10} + R{5,11} + R{5,12} + R{5,13}
   + R{5,14} + R{5,15} + R{5,16} + R{5,17} <= 1
 R1_6: R{6,0} + R{6,1} + R{6,2} + R{6,3} + R{6,4} + R{6,5} + R{6,6}
   + R{6,7} + R{6,8} + R{6,9} + R{6,10} + R{6,11} + R{6,12} + R{6,13}
   + R{6,14} + R{6,15} + R{6,16} + R{6,17} + R{6,18} + R{6,19} + R{6,20}
   + R{6,21} + R{6,22} + R{6,23} + R{6,24} + R{6,25} <= 1
 R2_0: 7 R{0,0} + 7 R{0,1} + 7 R{0,2} + 7 R{0,11} + 7 R{0,12} + 7 R{0,13}
   + 7 R{0,14} + 7 R{0,15} + 7 R{0,16} + 7 R{0,17} + 7 R{0,18} + 7 R{0,19}
   + 7 R{0,20} + 7 R{0,21} + 7 R{0,22} <= 7
 R2_1: 10 R{1,1} + 10 R{1,2} + 10 R{1,3} + 10 R{1,5} + 10 R{1,6}
   + 10 R{1,7} + 10 R{1,8} + 10 R{1,9} + 10 R{1,10} + 10 R{1,11}
   + 10 R{1,13} + 10 R{6,11} + 10 R{6,14} <= 10
 R2_2: <= 0
 R2_3: 4 R{3,1} + 4 R{3,2} + 4 R{3,3} + 4 R{3,4} + 4 R{3,6} + 4 R{3,12}
   <= 4
 R2_4: <= 0
 R2_5: 5 R{0,4} + 5 R{0,5} + 5 R{0,6} + 3 R{5,2} + 3 R{5,3} + 5 R{5,4}
   + 3 R{5,5} + 3 R{5,6} + 5 R{5,8} + 5 R{5,12} + 5 R{5,13} + 5 R{5,14}
   + 3 R{5,16} <= 5
 R2_6: 10 R{1,1} + 10 R{1,2} + 10 R{1,3} + 10 R{1,4} + 10 R{1,7}
   + 10 R{1,8} + 10 R{1,10} + 10 R{1,11} + 10 R{1,12} + 10 R{1,13}
   + 10 R{5,7} + 10 R{5,8} + 10 R{5,9} + 10 R{5,12} <= 10
 R2_7: 6 R{1,1} + 6 R{1,2} + 6 R{1,3} + 6 R{1,4} + 6 R{1,5} + 6 R{1,7}
   + 6 R{1,8} + 6 R{1,10} + 6 R{1,11} + 6 R{1,12} + 6 R{1,13} <= 6
 R2_8: <= 0
 R2_9: 12 R{4,1} + 12 R{4,2} + 12 R{4,3} + 12 R{4,4} + 12 R{4,5}
   + 12 R{4,6} + 12 R{4,7} + 12 R{4,8} + 12 R{4,9} + 12 R{4,10}
   + 12 R{4,11} + 12 R{4,12} + 12 R{4,14} + 12 R{4,15} + 12 R{4,16}
   + 12 R{4,17} + 12 R{4,18} + 12 R{4,20} + 12 R{4,21} <= 12
 R2_10: 8 R{6,1} + 8 R{6,2} <= 8
 R2_11: <= 0
 R2_12: <= 0
 R2_13: <= 0
 R2_14: <= 0
 R2_15: 11 R{0,0} + 11 R{0,1} + 11 R{0,2} + 11 R{0,21} + 11 R{4,1}
   + 11 R{4,2} + 11 R{4,3} + 11 R{4,8} + 11 R{4,18} <= 11
 R2_16: 5 R{0,19} <= 5
 R2_17: 11 R{0,14} + 11 R{0,19} + 11 R{4,12} <= 11
 R2_18: <= 0
 R2_19: 11 R{0,9} + 11 R{0,11} + 11 R{0,16} + 11 R{1,9} + 11 R{2,4}
   + 11 R{2,6} + 11 R{2,8} + 11 R{2,12} + 11 R{4,1} + 11 R{4,2} + 11 R{4,3}
   + 11 R{4,4} + 11 R{4,5} + 11 R{4,6} + 11 R{4,7} + 11 R{4,8} + 11 R{4,10}
   + 11 R{4,17} + 11 R{4,18} + 11 R{4,20} + 11 R{4,21} + 11 R{6,4} <= 11
 R2_20: 13 R{0,7} + 13 R{1,4} + 13 R{2,3} + 13 R{2,5} + 13 R{2,7}
   + 13 R{2,8} + 13 R{5,13} + 13 R{5,14} + 13 R{6,1} + 13 R{6,2}
   + 13 R{6,3} + 13 R{6,5} + 13 R{6,6} + 13 R{6,7} + 13 R{6,9} + 13 R{6,10}
   + 13 R{6,13} + 13 R{6,16} + 13 R{6,20} + 13 R{6,21} + 13 R{6,22} <= 13
 R2_21: <= 0
 R2_22: 10 R{4,9} + 10 R{4,14} + 10 R{4,22} + 10 R{4,24} + 10 R{6,19}
   <= 10
 R2_23: 14 R{4,10} + 14 R{4,13} + 14 R{4,14} + 14 R{4,23} + 14 R{4,24}
   + 14 R{6,3} + 14 R{6,5} + 14 R{6,6} + 14 R{6,7} + 14 R{6,9} + 14 R{6,10}
   + 14 R{6,11} + 14 R{6,12} + 14 R{6,13} + 14 R{6,14} + 14 R{6,16}
   + 14 R{6,17} + 14 R{6,18} + 14 R{6,19} + 14 R{6,20} + 14 R{6,21}
   + 14 R{6,23} + 14 R{6,24} + 14 R{6,25} <= 14
 R2_24: 10 R{3,1} + 10 R{3,2} + 10 R{3,3} + 10 R{3,5} + 10 R{3,7}
   + 10 R{3,8} + 10 R{3,9} + 10 R{3,10} + 10 R{3,12} + 10 R{4,15}
   + 10 R{5,11} <= 10
 R2_25: 13 R{0,0} + 13 R{0,1} + 13 R{0,2} + 13 R{0,11} + 13 R{0,12}
   + 13 R{0,15} + 13 R{0,16} + 13 R{0,17} + 13 R{0,18} + 13 R{0,20}
   + 13 R{0,21} + 13 R{0,22} + 13 R{4,1} + 13 R{4,2} + 13 R{4,3}
   + 13 R{4,4} + 13 R{4,5} + 13 R{4,6} + 13 R{4,8} + 13 R{4,10}
   + 13 R{4,12} + 13 R{4,13} + 13 R{4,15} + 13 R{4,17} + 13 R{4,18}
   + 13 R{4,20} + 13 R{4,21} <= 13
 R2_26: 6 R{1,12} + 6 R{2,10} + 6 R{2,11} + 6 R{5,1} + 6 R{5,2} + 6 R{5,3}
   + 6 R{5,4} + 6 R{5,5} + 6 R{5,6} + 6 R{5,7} + 6 R{5,9} + 6 R{5,10}
   + 6 R{5,11} + 6 R{5,12} + 6 R{5,13} + 6 R{5,14} + 6 R{5,15} + 6 R{5,16}
   + 6 R{5,17} <= 6
 R2_27: 5 R{0,5} + 5 R{0,6} + 5 R{0,7} + 5 R{0,10} + 5 R{0,21} + 5 R{1,8}
   + 5 R{2,5} + 5 R{3,6} + 5 R{3,10} + 5 R{3,11} + 5 R{5,2} + 5 R{5,3}
   + 5 R{5,4} + 5 R{5,7} + 5 R{5,11} + 5 R{5,15} + 5 R{6,1} + 5 R{6,2}
   + 5 R{6,3} + 5 R{6,4} + 5 R{6,5} + 5 R{6,6} + 5 R{6,7} + 5 R{6,8}
   + 5 R{6,9} + 5 R{6,10} + 5 R{6,11} + 5 R{6,12} + 5 R{6,13} + 5 R{6,14}
   + 5 R{6,16} + 5 R{6,20} + 5 R{6,21} + 5 R{6,22} + 5 R{6,25} <= 5
 R2_28: <= 0
 R2_29: <= 0
 R2_30: <= 0
 R2_31: <= 0
 R2_32: 7 R{2,13} + 7 R{5,1} + 7 R{5,2} + 7 R{5,3} + 7 R{5,4} + 7 R{5,7}
   + 7 R{5,8} + 7 R{5,11} + 7 R{5,12} + 7 R{5,13} + 7 R{5,14} + 7 R{5,15}
   + 7 R{5,16} + 7 R{5,17} <= 7
 R2_33: 12 R{1,13} + 12 R{3,12} + 12 R{5,16} <= 12
 R2_34: 5 R{0,0} + 5 R{0,1} + 5 R{0,2} + 5 R{0,11} + 5 R{0,12} + 5 R{0,13}
   + 5 R{0,14} + 5 R{0,15} + 5 R{0,16} + 5 R{0,19} + 5 R{0,21} + 5 R{0,22}
   + 5 R{6,15} + 5 R{6,18} + 5 R{6,23} <= 5
 R2_35: <= 0
 R2_36: 15 R{5,1} + 15 R{5,2} + 15 R{5,3} + 15 R{5,5} + 15 R{5,6}
   + 15 R{5,7} + 15 R{5,12} + 15 R{5,13} + 15 R{5,15} + 15 R{5,16} <= 16
 R2_37: 5 R{2,14} + 5 R{3,1} + 5 R{3,2} + 5 R{3,3} + 5 R{3,4} + 5 R{3,5}
   + 5 R{3,6} + 5 R{3,7} + 5 R{3,8} + 5 R{3,9} + 5 R{3,11} + 5 R{3,12}
   + 5 R{3,13} <= 5
 R2_38: <= 0
 R2_39: 15 R{0,0} + 15 R{0,1} + 15 R{0,2} + 15 R{0,11} + 15 R{0,16}
   + 15 R{0,21} <= 17
 R2_40: 15 R{2,1} + 15 R{2,2} + 15 R{2,3} + 15 R{2,4} + 15 R{2,7}
   + 15 R{2,10} + 15 R{2,12} + 15 R{2,13} + 15 R{2,14} + 15 R{6,25} <= 15
 R2_41: 5 R{0,0} + 5 R{0,1} + 5 R{0,2} + 5 R{0,11} + 5 R{0,12} + 5 R{0,13}
   + 5 R{0,14} + 5 R{0,15} + 5 R{0,16} + 5 R{0,17} + 5 R{0,18} + 5 R{0,19}
   + 5 R{0,21} + 5 R{0,22} + 5 R{3,7} + 5 R{4,7} + 5 R{4,11} + 5 R{4,16}
   + 5 R{4,19} + 5 R{4,23} + 5 R{6,4} <= 5
 R2_42: 4 R{2,1} + 4 R{2,2} + 4 R{2,3} + 4 R{2,5} + 4 R{2,7} + 4 R{2,9}
   + 4 R{2,13} + 4 R{2,14} <= 4
 R2_43: <= 0
 R2_44: <= 0
 R2_45: <= 0
 R2_46: 9 R{0,12} + 9 R{0,13} + 9 R{0,14} + 9 R{0,15} + 9 R{0,17}
   + 9 R{0,18} + 9 R{0,20} + 9 R{0,22} + 9 R{4,22} + 9 R{6,15} <= 9
 R2_47: 7 R{0,0} + 7 R{0,1} + 7 R{0,2} + 7 R{0,21} + 7 R{5,1} + 7 R{5,2}
   + 7 R{5,3} + 7 R{5,4} + 7 R{5,5} + 7 R{5,6} + 7 R{5,8} + 7 R{5,11}
   + 7 R{5,12} + 7 R{5,15} + 7 R{5,16} + 7 R{5,17} <= 7
 R2_48: 4 R{4,1} + 4 R{4,2} + 4 R{4,3} + 4 R{4,4} + 4 R{4,5} + 4 R{4,6}
   + 4 R{4,8} + 4 R{4,9} + 4 R{4,11} + 4 R{4,12} + 4 R{4,15} + 4 R{4,16}
   + 4 R{4,17} + 4 R{4,18} + 4 R{4,19} + 4 R{4,20} + 4 R{4,21} <= 4
 R2_49: <= 0
 R2_50: <= 0
 R2_51: 11 R{1,10} + 11 R{1,13} + 11 R{4,1} + 11 R{4,3} + 11 R{4,4}
   + 11 R{4,6} + 11 R{4,9} + 11 R{4,20} + 11 R{6,17} + 11 R{6,23}
   + 11 R{6,24} <= 11
 R2_52: 10 R{4,16} + 10 R{4,19} + 10 R{4,21} + 10 R{4,22} + 10 R{4,23}
   + 10 R{4,24} <= 10
 R2_53: 13 R{4,1} + 13 R{4,2} + 13 R{4,3} + 13 R{4,4} + 13 R{4,6}
   + 13 R{4,8} + 13 R{4,9} + 13 R{4,10} + 13 R{4,13} + 13 R{4,14}
   + 13 R{4,17} + 13 R{4,18} <= 13
 R2_54: 9 R{3,1} + 9 R{3,2} + 9 R{3,3} + 9 R{3,4} + 9 R{3,5} + 9 R{3,6}
   + 9 R{3,7} + 9 R{3,9} + 9 R{3,11} <= 9
 R2_55: 8 R{6,1} + 8 R{6,2} + 8 R{6,3} + 8 R{6,4} + 8 R{6,6} + 8 R{6,7}
   + 8 R{6,8} + 8 R{6,9} + 8 R{6,10} + 8 R{6,11} + 8 R{6,12} + 8 R{6,13}
   + 8 R{6,14} + 8 R{6,16} + 8 R{6,17} + 8 R{6,20} + 8 R{6,21} + 8 R{6,22}
   + 8 R{6,23} + 8 R{6,24} <= 8
 R2_56: 6 R{0,1} + 6 R{0,2} + 6 R{0,11} + 6 R{0,12} + 6 R{0,14} + 6 R{0,15}
   + 6 R{0,16} + 6 R{0,17} + 6 R{0,20} + 6 R{0,21} + 6 R{4,5} + 6 R{4,7}
   + 6 R{4,11} + 6 R{4,12} + 6 R{4,15} + 6 R{6,7} + 6 R{6,11} + 6 R{6,16}
   + 6 R{6,17} + 6 R{6,20} + 6 R{6,23} <= 6
 R2_57: <= 0
 R2_58: <= 0
 R2_59: 10 R{4,20} + 10 R{4,21} + 10 R{6,8} + 10 R{6,13} + 10 R{6,14}
   + 10 R{6,15} + 10 R{6,18} + 10 R{6,19} <= 10
 R2_60: <= 0
 R2_61: 9 R{4,13} + 9 R{4,19} + 9 R{4,22} + 9 R{4,23} + 9 R{4,24}
   + 9 R{6,15} + 9 R{6,18} + 9 R{6,19} + 9 R{6,20} + 9 R{6,21} + 9 R{6,22}
   + 9 R{6,23} + 9 R{6,24} <= 9
 R2_62: <= 0
 R2_63: <= 0
 R2_64: <= 0
 R2_65: 5 R{0,20} + 5 R{0,22} + 5 R{6,1} + 5 R{6,2} + 5 R{6,3} + 5 R{6,4}
   + 5 R{6,5} + 5 R{6,6} + 5 R{6,8} + 5 R{6,9} + 5 R{6,10} + 5 R{6,12}
   + 5 R{6,13} + 5 R{6,14} + 5 R{6,21} + 5 R{6,22} + 5 R{6,24} + 5 R{6,25}
   <= 5
 R2_66: 7 R{1,9} + 7 R{6,1} + 7 R{6,2} + 7 R{6,3} + 7 R{6,4} + 7 R{6,5}
   + 7 R{6,7} + 7 R{6,8} + 7 R{6,9} + 7 R{6,10} + 7 R{6,11} + 7 R{6,12}
   + 7 R{6,15} + 7 R{6,16} + 7 R{6,17} + 7 R{6,20} + 7 R{6,21} + 7 R{6,22}
   + 7 R{6,24} + 7 R{6,25} <= 7
 R2_67: 3 R{0,13} + 3 R{0,16} + 3 R{0,17} + 3 R{0,18} + 3 R{0,20}
   + 3 R{6,5} + 3 R{6,6} + 3 R{6,12} + 3 R{6,13} + 3 R{6,14} + 3 R{6,15}
   + 3 R{6,16} + 3 R{6,17} + 3 R{6,18} + 3 R{6,19} + 3 R{6,25} <= 3
 R2_68: 6 R{4,22} + 6 R{4,24} + 6 R{6,1} + 6 R{6,2} + 6 R{6,3} + 6 R{6,4}
   + 6 R{6,5} + 6 R{6,6} + 6 R{6,7} + 6 R{6,9} + 6 R{6,10} + 6 R{6,11}
   + 6 R{6,12} + 6 R{6,13} + 6 R{6,14} + 6 R{6,15} + 6 R{6,16} + 6 R{6,17}
   + 6 R{6,18} + 6 R{6,20} + 6 R{6,21} + 6 R{6,22} + 6 R{6,23} + 6 R{6,25}
   <= 6
 R2_69: 7 R{0,0} + 7 R{0,1} + 7 R{0,2} + 7 R{0,11} + 7 R{0,12} + 7 R{0,16}
   + 7 R{4,1} + 7 R{4,2} + 7 R{4,3} + 7 R{4,4} + 7 R{4,5} + 7 R{4,6}
   + 7 R{4,7} + 7 R{4,8} + 7 R{4,9} + 7 R{4,10} + 7 R{4,11} + 7 R{4,13}
   + 7 R{4,14} + 7 R{4,16} + 7 R{4,17} + 7 R{4,18} + 7 R{4,20} + 7 R{4,21}
   <= 7
 R2_70: 11 R{1,1} + 11 R{1,2} + 11 R{1,7} + 11 R{1,10} + 11 R{1,11} <= 11
 R2_71: 7 R{3,1} + 7 R{3,4} + 7 R{3,10} + 7 R{4,22} + 7 R{4,24} + 7 R{6,15}
   + 7 R{6,18} + 7 R{6,19} + 7 R{6,23} <= 7
 R2_72: <= 0
 R2_73: 11 R{0,0} + 11 R{0,1} + 11 R{0,2} + 11 R{0,11} + 11 R{0,12}
   + 11 R{0,14} + 11 R{0,15} + 11 R{0,19} + 11 R{0,21} + 11 R{0,22} <= 11
 R2_74: 5 R{5,1} + 5 R{5,2} + 5 R{5,3} + 5 R{5,4} + 5 R{5,5} + 5 R{5,6}
   + 5 R{5,7} + 5 R{5,8} + 5 R{5,12} + 5 R{5,13} + 5 R{5,14} + 5 R{5,15}
   + 5 R{5,16} + 5 R{5,17} <= 5
 R2_75: 8 R{6,1} + 8 R{6,2} + 8 R{6,3} + 8 R{6,5} + 8 R{6,6} + 8 R{6,7}
   + 8 R{6,9} + 8 R{6,10} + 8 R{6,11} + 8 R{6,12} + 8 R{6,16} + 8 R{6,17}
   + 8 R{6,21} + 8 R{6,22} + 8 R{6,24} + 8 R{6,25} <= 8
 R2_76: 12 R{0,4} + 12 R{0,5} + 12 R{0,6} + 12 R{0,7} + 12 R{0,8}
   + 12 R{0,9} + 12 R{3,8} + 12 R{3,9} + 12 R{3,13} + 12 R{5,4} + 12 R{5,9}
   + 12 R{5,10} + 12 R{5,11} + 12 R{5,14} <= 12
 R2_77: 7 R{0,1} + 7 R{0,2} + 7 R{0,5} + 7 R{0,6} + 7 R{0,9} + 7 R{0,11}
   + 7 R{1,2} + 7 R{1,5} + 7 R{1,7} + 7 R{1,11} + 7 R{1,12} + 7 R{2,2}
   + 7 R{2,3} + 7 R{2,4} + 7 R{2,6} + 7 R{2,7} + 7 R{2,9} + 7 R{2,10}
   + 7 R{2,11} + 7 R{3,2} + 7 R{3,3} + 7 R{3,5} + 7 R{3,7} + 5 R{3,12}
   + 7 R{3,13} + 7 R{4,2} + 7 R{4,8} + 7 R{4,17} + 7 R{5,2} + 7 R{5,3}
   + 7 R{5,5} + 7 R{5,6} + 7 R{5,7} + 7 R{5,15} + 7 R{5,16} + 7 R{6,2}
   + 7 R{6,3} + 7 R{6,4} + 7 R{6,6} + 7 R{6,7} + 7 R{6,9} + 7 R{6,13}
   + 7 R{6,22} <= 7
Bounds
End
